(set-logic QF_AX)
(declare-sort I 0)
(declare-sort E 0)
(declare-fun a () (Array I E))
(declare-fun a2 () (Array I E))
(declare-fun i2 () I)
(declare-fun i3 () I)
(declare-fun i4 () I)
(declare-fun i () I)
(assert (= a (store (store (store (store a2 i4 (select a i2)) i2 (select a i4)) i3 (select a i)) i (select a2 i4))))
(assert (not (= a a2)))
(check-sat)
